solution status: optimal solution found
objective value:                                   25
x51                                                 1 	(obj:1)
x52                                                 1 	(obj:1)
x53                                                 1 	(obj:1)
x54                                                 1 	(obj:1)
x55                                                 1 	(obj:1)
x62                                                 1 	(obj:1)
x67                                                 1 	(obj:1)
x69                                                 1 	(obj:1)
x77                                                 1 	(obj:1)
x78                                                 1 	(obj:1)
x79                                                 1 	(obj:1)
x80                                                 1 	(obj:1)
x81                                                 1 	(obj:1)
x87                                                 1 	(obj:1)
x88                                                 1 	(obj:1)
x91                                                 1 	(obj:1)
x98                                                 1 	(obj:1)
x108                                                1 	(obj:1)
x111                                                1 	(obj:1)
x112                                                1 	(obj:1)
x113                                                1 	(obj:1)
x114                                                1 	(obj:1)
x116                                                1 	(obj:1)
x117                                                1 	(obj:1)
x119                                                1 	(obj:1)
thing.thing.chamber[2].thingy.v6_y                   18 	(obj:0)
thing.thing.chamber[2].thingy.v6_z                   19 	(obj:0)
thing.thing.chamber[1].thingy.r4c_y                   21 	(obj:0)
thing.thing.chamber[1].thingy.r4c_z                   18 	(obj:0)
thing.thing.chamber[2].thingy.r3c_y                   18 	(obj:0)
thing.thing.chamber[2].thingy.r3c_z                   20 	(obj:0)
thing.thing.chamber[2].thingy.v4_y                   20 	(obj:0)
thing.thing.chamber[2].thingy.v4_z                   18 	(obj:0)
thing.thing.chamber[1].thingy.r3c_y                   21 	(obj:0)
thing.thing.chamber[1].thingy.r3c_z                   20 	(obj:0)
thing.thing.chamber[1].thingy.v10_y                   20 	(obj:0)
thing.thing.chamber[1].thingy.v10_z                   22 	(obj:0)
thing.thing.chamber[0].thingy.p0_y                   19 	(obj:0)
thing.thing.chamber[0].thingy.p0_z                   21 	(obj:0)
thing.thing.chamber[1].thingy.v11_y                   18 	(obj:0)
thing.thing.chamber[1].thingy.v11_z                   17 	(obj:0)
thing.thing.chamber[0].thingy.r1c_y                   17 	(obj:0)
thing.thing.chamber[0].thingy.r1c_z                   18 	(obj:0)
thing.thing.chamber[1].thingy.v2_y                   20 	(obj:0)
thing.thing.chamber[1].thingy.v2_z                   20 	(obj:0)
thing.thing.chamber[0].thingy.p2_y                   20 	(obj:0)
thing.thing.chamber[0].thingy.p2_z                   21 	(obj:0)
thing.vertical_ctrl_hole_y                         17 	(obj:0)
thing.vertical_ctrl_hole_z                         17 	(obj:0)
thing.thing.chamber[2].thingy.v2_y                   17 	(obj:0)
thing.thing.chamber[2].thingy.v2_z                   20 	(obj:0)
thing.thing.chamber[2].thingy.v3_y                   19 	(obj:0)
thing.thing.chamber[2].thingy.v3_z                   22 	(obj:0)
thing.vertical_flush_hole_y                        17 	(obj:0)
thing.vertical_flush_hole_z                        19 	(obj:0)
thing.thing.chamber[2].thingy.v5_y                   20 	(obj:0)
thing.thing.chamber[2].thingy.v5_z                   17 	(obj:0)
thing.thing.chamber[2].thingy.v7_y                   19 	(obj:0)
thing.thing.chamber[2].thingy.v7_z                   18 	(obj:0)
thing.thing.chamber[1].thingy.r2c_y                   19 	(obj:0)
thing.thing.chamber[1].thingy.r2c_z                   17 	(obj:0)
thing.thing.chamber[0].thingy.v11_y                   18 	(obj:0)
thing.thing.chamber[0].thingy.v11_z                   18 	(obj:0)
thing.thing.chamber[1].thingy.v3_y                   21 	(obj:0)
thing.thing.chamber[1].thingy.v3_z                   21 	(obj:0)
thing.loop_exit_ctrl_hole_y                        16 	(obj:0)
thing.loop_exit_ctrl_hole_z                        18 	(obj:0)
thing.thing.chamber[2].thingy.v9_y                   19 	(obj:0)
thing.thing.chamber[2].thingy.v9_z                   20 	(obj:0)
thing.thing.chamber[2].thingy.v8_y                   17 	(obj:0)
thing.thing.chamber[2].thingy.v8_z                   21 	(obj:0)
